p wcnf 174 205 206 
1 -126 145 0 
1 107 -109 0 
1 125 102 0 
1 -149 -117 0 
1 -33 -124 0 
1 100 -37 0 
1 -161 -147 0 
1 -107 98 0 
1 53 -168 0 
1 -45 -37 0 
1 -30 -153 0 
1 -28 -10 0 
1 16 169 0 
1 -55 86 0 
1 -51 172 0 
1 -66 -46 0 
1 123 -37 0 
1 -115 -90 0 
1 145 -168 0 
1 2 -48 0 
1 -25 118 0 
1 -44 41 0 
1 -89 136 0 
1 -34 53 0 
1 -132 -13 0 
1 119 25 0 
1 173 134 0 
1 -22 12 0 
1 24 78 0 
1 -12 -4 0 
1 -38 -91 0 
1 -3 24 0 
1 73 -173 0 
1 38 171 0 
1 139 58 0 
1 148 8 0 
1 12 9 0 
1 -140 -171 0 
1 47 -81 0 
1 -19 72 0 
1 -2 -1 0 
1 101 -102 0 
1 97 -117 0 
1 48 -128 0 
1 -32 -112 0 
1 -129 130 0 
1 -60 104 0 
1 -154 -81 0 
1 -168 -13 0 
1 -53 18 0 
1 -37 -36 0 
1 105 141 0 
1 -174 171 0 
1 -72 -89 0 
1 -38 -172 0 
1 -58 99 0 
1 139 -129 0 
1 115 22 0 
1 -47 -161 0 
1 -28 -109 0 
1 156 -109 0 
1 -120 -57 0 
1 138 45 0 
1 -170 55 0 
1 125 -93 0 
1 -2 -89 0 
1 8 -126 0 
1 -120 -47 0 
1 138 -157 0 
1 51 -42 0 
1 42 1 0 
1 112 -152 0 
1 -165 -138 0 
1 -103 -110 0 
1 85 90 0 
1 138 -104 0 
1 24 -64 0 
1 86 127 0 
1 70 145 0 
1 136 164 0 
1 66 123 0 
1 87 -152 0 
1 -12 2 0 
1 -43 55 0 
1 60 -156 0 
1 79 -152 0 
1 66 -151 0 
1 89 82 0 
1 -157 -163 0 
1 -102 -91 0 
1 -44 -95 0 
1 85 95 0 
1 94 -13 0 
1 -109 171 0 
1 -43 81 0 
1 95 -153 0 
1 -25 160 0 
1 76 -129 0 
1 -8 98 0 
1 -95 -15 0 
1 74 35 0 
1 -7 127 0 
1 -163 -74 0 
1 -166 167 0 
1 103 73 0 
1 18 83 0 
1 -123 -47 0 
1 -75 -112 0 
1 156 142 0 
1 -6 22 0 
1 -169 103 0 
1 -60 -18 0 
1 111 -96 0 
1 -6 132 0 
1 52 -145 0 
1 -34 47 0 
1 -86 108 0 
1 53 41 0 
1 -21 -91 0 
1 124 -158 0 
1 156 -168 0 
1 28 13 0 
1 121 -94 0 
1 153 116 0 
1 -10 4 0 
1 84 -57 0 
1 66 -132 0 
1 -29 -161 0 
1 -117 107 0 
1 -110 -160 0 
1 159 -45 0 
1 -144 38 0 
1 -148 -33 0 
1 -103 65 0 
1 -53 -10 0 
1 -97 -146 0 
1 -67 12 0 
1 45 10 0 
1 124 86 0 
1 40 -70 0 
1 40 -26 0 
1 -143 -174 0 
1 -152 54 0 
1 -20 -138 0 
1 -3 -63 0 
1 74 -6 0 
1 6 -56 0 
1 -87 -38 0 
1 -16 2 0 
1 -105 -110 0 
1 -38 54 0 
1 -162 -118 0 
1 -110 -35 0 
1 -113 -163 0 
1 -29 7 0 
1 38 -99 0 
1 48 -38 0 
1 -73 -8 0 
1 24 -77 0 
1 80 -128 0 
1 90 97 0 
1 88 -161 0 
1 -150 34 0 
1 -133 153 0 
1 12 -90 0 
1 5 74 0 
1 -166 77 0 
1 117 -156 0 
1 -121 -28 0 
1 73 -49 0 
1 -59 -132 0 
1 138 174 0 
1 -7 -106 0 
1 151 -112 0 
1 128 -77 0 
1 11 -29 0 
1 -13 -144 0 
1 145 26 0 
1 145 107 0 
1 92 -4 0 
1 -26 -158 0 
1 -111 -166 0 
1 78 -21 0 
1 -141 -160 0 
1 -16 -4 0 
1 43 -172 0 
1 148 155 0 
1 156 -121 0 
1 -119 -81 0 
1 -167 -64 0 
1 162 -147 0 
1 -110 -71 0 
1 -68 51 0 
1 156 -124 0 
1 132 -20 0 
1 -171 93 0 
1 -14 23 0 
1 7 56 0 
1 36 47 0 
1 -136 -21 0 
1 -58 105 0 
1 -38 -112 0 
1 -54 -77 0 
1 161 -93 0 
1 -119 156 0 
